%chk=C:\Users\dell\Desktop\gausopt.chk
%nprocshared=20
%mem=16GB
#p freq m062x/6-311g(d,p) scrf=(solvent=carbontetrachloride,pcm)
geom=connectivity

Title Card Required

0 2
 N                  1.57496300   -0.60627400   -0.00049700
 C                  2.03891800   -0.08910900    1.32380200
 C                  2.24382000    1.42857300    1.24632400
 C                  3.01135500    1.87103700    0.00515300
 C                  2.25151400    1.42982300   -1.24119000
 C                  2.04700900   -0.08777600   -1.32142600
 O                  1.13148900   -1.79909600   -0.00246400
 C                  0.96620500   -0.41286200   -2.35350500
 C                  0.95177800   -0.41509000    2.34894300
 H                  2.75769400    1.73975900    2.15992900
 H                  1.26388700    1.91929200    1.25217800
 H                  2.77110100    1.74185600   -2.15127000
 H                  1.27172700    1.92071900   -1.25267600
 H                  1.25033700    0.02769800   -3.31155700
 H                  0.00133200    0.00323000   -2.05463600
 H                  0.85907300   -1.48960000   -2.47762100
 H                 -0.01103800    0.00197300    2.04484400
 H                  1.23044100    0.02398400    3.30927300
 H                  0.84324600   -1.49193900    2.47084900
 H                  3.11831400    2.95782600    0.00600200
 H                  4.02475800    1.45949600    0.00806200
 C                 -3.67573800   -0.24511200    0.00002100
 C                 -2.26150700   -0.15586100   -0.00378800
 C                 -1.59732200    1.07600400   -0.00572700
 C                 -2.36852000    2.22345600   -0.00384000
 C                 -3.77552800    2.15564900   -0.00008300
 C                 -4.43047400    0.93867300    0.00187800
 C                 -3.99964600   -1.64269100    0.00121000
 C                 -2.81301200   -2.32039900   -0.00187300
 H                 -0.51477600    1.12194500   -0.00843200
 H                 -1.88253900    3.19213400   -0.00526800
 H                 -4.34898900    3.07482900    0.00132100
 H                 -5.51379900    0.89588200    0.00485400
 H                 -4.98365500   -2.08323300    0.00391400
 H                 -0.77828700   -1.68477000   -0.00710700
 N                 -1.76327900   -1.43457800   -0.00486000
 H                 -2.62475900   -3.38253200   -0.00211400
 C                  3.34464700   -0.81532500   -1.70108700
 H                  3.20143400   -1.89204100   -1.59550500
 H                  3.58865500   -0.59518900   -2.74269300
 H                  4.18968800   -0.51045500   -1.08338000
 C                  3.33417800   -0.81710800    1.71065000
 H                  3.57202200   -0.59782900    2.75386000
 H                  3.19144400   -1.89372000    1.60337200
 H                  4.18292800   -0.51188300    1.09823200

 1 2 1.0 6 1.0 7 1.5
 2 3 1.0 9 1.0 42 1.0
 3 4 1.0 10 1.0 11 1.0
 4 5 1.0 20 1.0 21 1.0
 5 6 1.0 12 1.0 13 1.0
 6 8 1.0 38 1.0
 7
 8 14 1.0 15 1.0 16 1.0
 9 17 1.0 18 1.0 19 1.0
 10
 11
 12
 13
 14
 15
 16
 17
 18
 19
 20
 21
 22 23 1.5 27 1.5 28 1.5
 23 24 1.5 36 1.5
 24 25 2.0 30 1.0
 25 26 1.5 31 1.0
 26 27 2.0 32 1.0
 27 33 1.0
 28 29 2.0 34 1.0
 29 36 1.5 37 1.0
 30
 31
 32
 33
 34
 35 36 1.0
 36
 37
 38 39 1.0 40 1.0 41 1.0
 39
 40
 41
 42 43 1.0 44 1.0 45 1.0
 43
 44
 45

